FILENAME:   /home/mcs001/s132664/testsets/IP/miplib2017/pigeon-08.mps.gz
SETTINGS:   settings_isopr_ostrowskidynamicbranching_avoidsubtreenodes
TIMELIMIT:  7200
OUTPUTNAME: final_miplib_symretope_if_extended_generating_set_cpx_v802__settings_isopr_ostrowskidynamicbranching_avoidsubtreenodes__2__
BINNAME:    bin/symmetries.linux.x86_64.gnu.opt.cpx
BASENAME:   pigeon-08.mps.gz
SEED:       2
@01 /home/mcs001/s132664/testsets/IP/miplib2017/pigeon-08.mps.gz ===========
@02 pigeon-08.mps.gz
@03 1686580700
SCIP version 8.0.2 [precision: 8 byte] [memory: block] [mode: optimized] [LP solver: CPLEX 20.1.0.0] [GitHash: 5f0473c]
Copyright (C) 2002-2022 Konrad-Zuse-Zentrum fuer Informationstechnik Berlin (ZIB)

Symmetry handling routines - (c) Marc Pfetsch, Thomas Rehn, Christopher Hojny.
[GitHash: a1587cb]


Turned off presolver <gateextraction>.
reading parameter file <../settings/settings_isopr_ostrowskidynamicbranching_avoidsubtreenodes.set> ...

Changed settings:
limits/time = 7200
limits/restarts = 0
randomization/randomseedshift = 2
constraints/orbitope/sepafreq = -1
constraints/orbitope/propfreq = 1
presolving/gateextraction/maxrounds = 0
propagating/isoprune/avoidsubtreenodes = TRUE
useisoprune = TRUE


solving problem ...

original problem has 344 variables (272 bin, 0 int, 0 impl, 72 cont) and 601 constraints
feasible solution found by trivial heuristic after 0.0 seconds, objective value 0.000000e+00
presolving:
(round 1, fast)       72 del vars, 1 del conss, 0 add conss, 24 chg bounds, 1 chg sides, 0 chg coeffs, 0 upgd conss, 0 impls, 8 clqs
(round 2, exhaustive) 72 del vars, 253 del conss, 0 add conss, 24 chg bounds, 1 chg sides, 0 chg coeffs, 0 upgd conss, 0 impls, 8 clqs
(round 3, exhaustive) 72 del vars, 253 del conss, 0 add conss, 24 chg bounds, 1 chg sides, 0 chg coeffs, 92 upgd conss, 0 impls, 8 clqs
(round 4, medium)     80 del vars, 253 del conss, 0 add conss, 24 chg bounds, 9 chg sides, 8 chg coeffs, 92 upgd conss, 0 impls, 36 clqs
   (0.0s) probing: 51/240 (21.2%) - 0 fixings, 0 aggregations, 0 implications, 0 bound changes
   (0.0s) probing aborted: 50/50 successive totally useless probings
Required symmetry:			(1 bin, 0 int, 0 cont); (fixed: 0 bin, 1 int, 0 cont)
Time for symmetry detection:		0.00 	(matrix graph, 1478 nodes, 5616 edges)
Number of generators:			5 	(max: 1500)
Order of symmetry group:		720
Log10 of symmetry group order:		2.9
Number of vars moved by some symmetry:	234
Total time for symmetry detection:	0.00

Turned off presolver <domcol>.
Turned off presolver <components>.

presolving (5 rounds: 5 fast, 4 medium, 3 exhaustive):
 80 deleted vars, 253 deleted constraints, 0 added constraints, 24 tightened bounds, 0 added holes, 9 changed sides, 8 changed coefficients
 0 implications, 36 cliques
presolved problem has 264 variables (240 bin, 0 int, 0 impl, 24 cont) and 349 constraints
     84 constraints of type <knapsack>
      8 constraints of type <setppc>
    256 constraints of type <linear>
      1 constraints of type <symmetries>
transformed objective value is always integral (scale: 1000)
Presolving Time: 0.01
transformed 1/1 original solutions to the transformed problem space

 time | node  | left  |LP iter|LP it/n|mem/heur|mdpt |frac |vars |cons |cols |rows |cuts |confs|strbr|  dualbound   | primalbound  |  gap   
  0.0s|     1 |     0 |   102 |     - |  5704k |   0 | 105 | 264 | 363 | 264 | 348 |   0 |  13 |   0 |-8.000000e+03 | 0.000000e+00 |    Inf 
  0.1s|     1 |     0 |   342 |     - |  6080k |   0 | 105 | 264 | 368 | 264 | 348 |   0 |  23 |  31 |-8.000000e+03 | 0.000000e+00 |    Inf 
  0.1s|     1 |     0 |   347 |     - |  6080k |   0 | 102 | 264 | 370 | 264 | 348 |   0 |  31 |  41 |-8.000000e+03 | 0.000000e+00 |    Inf 
  0.1s|     1 |     0 |   352 |     - |  6080k |   0 |  97 | 264 | 374 | 264 | 348 |   0 |  41 |  47 |-8.000000e+03 | 0.000000e+00 |    Inf 
  0.1s|     1 |     0 |   360 |     - |  6080k |   0 |  88 | 264 | 377 | 264 | 348 |   0 |  49 |  52 |-8.000000e+03 | 0.000000e+00 |    Inf 
  0.1s|     1 |     0 |   365 |     - |  6082k |   0 |  83 | 264 | 380 | 264 | 348 |   0 |  59 |  57 |-8.000000e+03 | 0.000000e+00 |    Inf 
  0.1s|     1 |     0 |   371 |     - |  6082k |   0 |  77 | 264 | 384 | 264 | 348 |   0 |  69 |  62 |-8.000000e+03 | 0.000000e+00 |    Inf 
  0.1s|     1 |     0 |   378 |     - |  6090k |   0 |  72 | 264 | 385 | 264 | 348 |   0 |  75 |  67 |-8.000000e+03 | 0.000000e+00 |    Inf 
  0.1s|     1 |     0 |   387 |     - |  6090k |   0 |  66 | 264 | 385 | 264 | 348 |   0 |  81 |  72 |-8.000000e+03 | 0.000000e+00 |    Inf 
  0.1s|     1 |     0 |   394 |     - |  6090k |   0 |  62 | 264 | 384 | 264 | 348 |   0 |  85 |  79 |-8.000000e+03 | 0.000000e+00 |    Inf 
  0.1s|     1 |     0 |   408 |     - |  6106k |   0 |  56 | 264 | 382 | 264 | 348 |   0 |  89 |  84 |-8.000000e+03 | 0.000000e+00 |    Inf 
  0.1s|     1 |     0 |   422 |     - |  6235k |   0 |  56 | 264 | 380 | 264 | 348 |   0 |  93 |  90 |-8.000000e+03 | 0.000000e+00 |    Inf 
  0.1s|     1 |     0 |   430 |     - |  6235k |   0 |  52 | 264 | 377 | 264 | 348 |   0 |  95 |  98 |-8.000000e+03 | 0.000000e+00 |    Inf 
  0.1s|     1 |     0 |   453 |     - |  6235k |   0 |  45 | 264 | 379 | 264 | 348 |   0 | 103 | 105 |-8.000000e+03 | 0.000000e+00 |    Inf 
  0.1s|     1 |     0 |   463 |     - |  6235k |   0 |  41 | 264 | 375 | 264 | 348 |   0 | 105 | 111 |-8.000000e+03 | 0.000000e+00 |    Inf 
 time | node  | left  |LP iter|LP it/n|mem/heur|mdpt |frac |vars |cons |cols |rows |cuts |confs|strbr|  dualbound   | primalbound  |  gap   
  0.1s|     1 |     0 |   468 |     - |  6235k |   0 |  34 | 264 | 376 | 264 | 348 |   0 | 111 | 119 |-8.000000e+03 | 0.000000e+00 |    Inf 
  0.1s|     1 |     2 |   468 |     - |  6235k |   0 |  34 | 264 | 376 | 264 | 348 |   0 | 111 | 119 |-8.000000e+03 | 0.000000e+00 |    Inf 
r 0.2s|    11 |    10 |   594 |  49.9 |shifting|  10 |   - | 264 | 387 | 264 | 348 |   0 | 125 | 131 |-8.000000e+03 |-7.000000e+03 |  14.29%
  0.3s|   100 |    37 |  1610 |  15.3 |  6348k |  24 |   2 | 264 | 542 | 264 | 348 |   0 | 281 | 206 |-8.000000e+03 |-7.000000e+03 |  14.29%
  0.4s|   200 |    51 |  3047 |  14.8 |  6486k |  25 |  10 | 264 | 669 | 264 | 348 |   0 | 472 | 345 |-8.000000e+03 |-7.000000e+03 |  14.29%
  0.7s|   300 |    67 |  5170 |  17.0 |  6563k |  25 |   2 | 264 | 871 | 264 | 348 |   0 | 842 | 584 |-8.000000e+03 |-7.000000e+03 |  14.29%
  0.8s|   400 |   103 |  6221 |  15.4 |  6592k |  25 |   2 | 264 | 883 | 264 | 348 |   0 | 867 | 598 |-8.000000e+03 |-7.000000e+03 |  14.29%
  1.1s|   500 |   111 |  7767 |  15.4 |  6755k |  25 |   - | 264 |1014 | 264 | 348 |   0 |1104 | 754 |-8.000000e+03 |-7.000000e+03 |  14.29%
  1.3s|   600 |   131 |  9548 |  15.8 |  7085k |  25 |   2 | 264 |1185 | 264 | 348 |   0 |1412 | 944 |-8.000000e+03 |-7.000000e+03 |  14.29%
  1.4s|   700 |   157 | 10616 |  15.1 |  7117k |  25 |   - | 264 |1215 | 264 | 348 |   0 |1466 | 979 |-8.000000e+03 |-7.000000e+03 |  14.29%
  1.6s|   800 |   173 | 11988 |  14.9 |  7158k |  25 |   - | 264 |1342 | 264 | 348 |   0 |1674 |1108 |-8.000000e+03 |-7.000000e+03 |  14.29%
  1.7s|   900 |   185 | 12808 |  14.1 |  7158k |  25 |  16 | 264 |1351 | 264 | 348 |   0 |1690 |1118 |-8.000000e+03 |-7.000000e+03 |  14.29%
  2.0s|  1000 |   193 | 14966 |  14.9 |  7277k |  25 |   8 | 264 |1592 | 264 | 348 |   0 |2106 |1382 |-8.000000e+03 |-7.000000e+03 |  14.29%
  2.1s|  1100 |   221 | 15957 |  14.4 |  7309k |  25 |   4 | 264 |1622 | 264 | 348 |   0 |2154 |1403 |-8.000000e+03 |-7.000000e+03 |  14.29%
  2.1s|  1200 |   247 | 16743 |  13.9 |  7317k |  25 |   2 | 264 |1625 | 264 | 348 |   0 |2157 |1403 |-8.000000e+03 |-7.000000e+03 |  14.29%
 time | node  | left  |LP iter|LP it/n|mem/heur|mdpt |frac |vars |cons |cols |rows |cuts |confs|strbr|  dualbound   | primalbound  |  gap   
  2.2s|  1300 |   273 | 17677 |  13.5 |  7317k |  25 |   - | 264 |1625 | 264 | 348 |   0 |2158 |1403 |-8.000000e+03 |-7.000000e+03 |  14.29%
  2.3s|  1400 |   263 | 18316 |  13.0 |  7317k |  25 |   2 | 264 |1630 | 264 | 348 |   0 |2163 |1403 |-8.000000e+03 |-7.000000e+03 |  14.29%
  2.3s|  1500 |   263 | 19162 |  12.7 |  7371k |  25 |   4 | 264 |1666 | 264 | 348 |   0 |2220 |1435 |-8.000000e+03 |-7.000000e+03 |  14.29%
  2.8s|  1600 |   261 | 21663 |  13.5 |  7717k |  25 |   6 | 264 |2033 | 264 | 348 |   2 |2849 |1785 |-8.000000e+03 |-7.000000e+03 |  14.29%
  3.3s|  1700 |   253 | 24187 |  14.2 |  7968k |  25 |   - | 264 |2352 | 264 | 348 |   4 |3421 |2137 |-8.000000e+03 |-7.000000e+03 |  14.29%
  3.5s|  1800 |   259 | 25708 |  14.2 |  8077k |  25 |   2 | 264 |2481 | 264 | 348 |   4 |3658 |2288 |-8.000000e+03 |-7.000000e+03 |  14.29%
  3.8s|  1900 |   195 | 27221 |  14.3 |  8249k |  25 |   - | 264 |2612 | 264 | 348 |   4 |3983 |2486 |-8.000000e+03 |-7.000000e+03 |  14.29%
  3.9s|  2000 |    95 | 27617 |  13.8 |  8264k |  25 |   - | 264 |2575 | 264 | 348 |   4 |3983 |2486 |-8.000000e+03 |-7.000000e+03 |  14.29%

SCIP Status        : problem is solved [optimal solution found]
Solving Time (sec) : 4.02
Solving Nodes      : 2095
Primal Bound       : -7.00000000000000e+03 (2 solutions)
Dual Bound         : -7.00000000000000e+03
Gap                : 0.00 %

Number of variables fixed to 0 by isomorphism pruning:	   232
Number of variables fixed to 1 by isomorphism pruning:	    26
@04 1686580704
